c 21_3_checker_6cl.cnf
c
c field = 21
c formula set type = 3_checker_6cl
c
p cnf 6 22
34 
36 
38 
-33 
-30 
-42 
35 
37 
39 
-32 
-31 
-43 
34 
36 
38 
-43 
-32 
-44 
35 
37 
39 
-42 
-33 
-45 
36 
38 
42 
-35 
-32 
-44 
37 
39 
43 
-34 
-33 
-45 
36 
38 
42 
-45 
-34 
-46 
37 
39 
43 
-44 
-35 
-47 
38 
42 
44 
-37 
-34 
-46 
39 
43 
45 
-36 
-35 
-47 
38 
42 
44 
-47 
-36 
-48 
39 
43 
45 
-46 
-37 
-49 
42 
44 
46 
-39 
-36 
-48 
43 
45 
47 
-38 
-37 
-49 
42 
44 
46 
-49 
-38 
-50 
43 
45 
47 
-48 
-39 
-51 
70 
100 
130 
-161 
-10 
-190 
71 
101 
131 
-160 
-11 
-191 
72 
104 
136 
-169 
-8 
-200 
73 
105 
137 
-168 
-9 
-201 
68 
96 
124 
-153 
-12 
-180 
69 
97 
125 
-152 
-13 
-181 
